letting n be 12
letting exclusions be [
]
letting assignments be [
[3, 5, 2, 5]
,
[8, 4, 2, 6]
,
[6, 6, 1, 3]
,
[2, 1, 2, 12]
,
[11, 1, 1, 8]
,
[3, 2, 1, 7]
,
[1, 5, 1, 10]
,
[2, 4, 1, 6]
,
[8, 6, 1, 4]
,
[8, 5, 2, 3]
]
